NAME : B-n10-5
DIMENSION : 10
VEHICLE NUMBER : 5
VEHICLE CAPACITY : 70
MAX POD NUMBER : 1
NODE_COORD_SECTION 
 1 17 76
 2 24 6
 3 96 29
 4 14 19
 5 14 32
 6 0 34
 7 16 22
 8 20 26
 9 22 28
 10 17 23
DEMAND_SECTION 
1 0 
2 25 
3 3 
4 13 
5 17 
6 16 
7 9 
8 22 
9 10 
10 16 
DEPOT_SECTION 
 1  
 -1  
EOF 
